c File: data_files/evolved_graphs/g3637.col
c
c Auto generated graph
c
p edge 100 1456
e 1 4
e 1 9
e 1 10
e 1 11
e 1 15
e 1 16
e 1 22
e 1 23
e 1 24
e 1 30
e 1 33
e 1 36
e 1 38
e 1 39
e 1 44
e 1 45
e 1 46
e 1 48
e 1 52
e 1 56
e 1 62
e 1 64
e 1 65
e 1 66
e 1 67
e 1 70
e 1 72
e 1 77
e 1 78
e 1 80
e 1 84
e 1 87
e 1 89
e 2 9
e 2 11
e 2 12
e 2 15
e 2 22
e 2 23
e 2 29
e 2 41
e 2 42
e 2 44
e 2 45
e 2 53
e 2 59
e 2 61
e 2 62
e 2 65
e 2 67
e 2 69
e 2 71
e 2 77
e 2 78
e 2 84
e 2 85
e 2 86
e 2 88
e 2 92
e 3 5
e 3 9
e 3 10
e 3 20
e 3 23
e 3 24
e 3 30
e 3 32
e 3 35
e 3 37
e 3 40
e 3 46
e 3 48
e 3 50
e 3 54
e 3 56
e 3 58
e 3 63
e 3 66
e 3 68
e 3 73
e 3 80
e 3 81
e 3 82
e 3 84
e 3 85
e 3 87
e 3 88
e 3 90
e 3 97
e 4 5
e 4 6
e 4 11
e 4 13
e 4 17
e 4 18
e 4 21
e 4 22
e 4 25
e 4 29
e 4 30
e 4 35
e 4 42
e 4 43
e 4 44
e 4 49
e 4 51
e 4 53
e 4 57
e 4 66
e 4 73
e 4 82
e 4 83
e 4 90
e 4 92
e 5 13
e 5 26
e 5 27
e 5 28
e 5 33
e 5 37
e 5 41
e 5 44
e 5 46
e 5 56
e 5 58
e 5 59
e 5 67
e 5 71
e 5 73
e 5 78
e 5 83
e 5 86
e 5 88
e 5 89
e 6 15
e 6 16
e 6 19
e 6 25
e 6 26
e 6 27
e 6 37
e 6 41
e 6 44
e 6 49
e 6 52
e 6 55
e 6 65
e 6 69
e 6 72
e 6 73
e 6 83
e 6 84
e 6 85
e 6 86
e 6 87
e 6 88
e 6 90
e 6 91
e 7 11
e 7 12
e 7 14
e 7 15
e 7 21
e 7 22
e 7 26
e 7 27
e 7 28
e 7 32
e 7 35
e 7 37
e 7 38
e 7 40
e 7 42
e 7 45
e 7 52
e 7 55
e 7 61
e 7 63
e 7 65
e 7 66
e 7 67
e 7 71
e 7 74
e 7 83
e 7 85
e 7 86
e 7 89
e 7 96
e 7 97
e 7 100
e 8 9
e 8 11
e 8 12
e 8 16
e 8 22
e 8 23
e 8 24
e 8 27
e 8 29
e 8 30
e 8 31
e 8 37
e 8 40
e 8 41
e 8 43
e 8 47
e 8 56
e 8 63
e 8 67
e 8 68
e 8 70
e 8 74
e 8 81
e 8 84
e 8 85
e 8 86
e 8 91
e 9 10
e 9 25
e 9 26
e 9 28
e 9 31
e 9 33
e 9 35
e 9 38
e 9 39
e 9 41
e 9 44
e 9 52
e 9 54
e 9 57
e 9 62
e 9 65
e 9 72
e 9 74
e 9 77
e 9 87
e 9 88
e 9 90
e 10 11
e 10 13
e 10 23
e 10 24
e 10 28
e 10 30
e 10 34
e 10 54
e 10 57
e 10 63
e 10 69
e 10 73
e 10 78
e 10 88
e 10 91
e 10 100
e 11 13
e 11 15
e 11 18
e 11 20
e 11 24
e 11 27
e 11 28
e 11 35
e 11 36
e 11 39
e 11 43
e 11 58
e 11 59
e 11 69
e 11 72
e 11 73
e 11 74
e 11 77
e 11 78
e 11 85
e 11 87
e 11 91
e 11 96
e 12 15
e 12 19
e 12 20
e 12 21
e 12 37
e 12 38
e 12 40
e 12 44
e 12 46
e 12 49
e 12 50
e 12 57
e 12 61
e 12 62
e 12 63
e 12 66
e 12 72
e 12 75
e 12 76
e 12 82
e 12 83
e 12 85
e 12 86
e 12 89
e 12 91
e 13 15
e 13 18
e 13 29
e 13 34
e 13 38
e 13 44
e 13 45
e 13 46
e 13 47
e 13 50
e 13 51
e 13 63
e 13 66
e 13 68
e 13 69
e 13 74
e 13 77
e 13 82
e 13 85
e 13 87
e 13 88
e 13 90
e 13 92
e 13 93
e 14 17
e 14 19
e 14 23
e 14 24
e 14 28
e 14 36
e 14 39
e 14 43
e 14 45
e 14 54
e 14 55
e 14 63
e 14 71
e 14 72
e 14 82
e 14 87
e 14 88
e 14 89
e 14 90
e 14 92
e 14 93
e 14 95
e 15 17
e 15 20
e 15 24
e 15 25
e 15 28
e 15 32
e 15 34
e 15 41
e 15 42
e 15 43
e 15 47
e 15 52
e 15 54
e 15 55
e 15 60
e 15 62
e 15 63
e 15 64
e 15 65
e 15 69
e 15 75
e 15 78
e 15 79
e 15 80
e 15 83
e 15 84
e 15 85
e 15 86
e 15 87
e 15 88
e 15 90
e 15 91
e 15 92
e 15 97
e 16 17
e 16 22
e 16 26
e 16 31
e 16 34
e 16 35
e 16 40
e 16 46
e 16 50
e 16 51
e 16 53
e 16 55
e 16 61
e 16 63
e 16 66
e 16 67
e 16 73
e 16 74
e 16 76
e 16 80
e 16 81
e 16 82
e 16 86
e 16 87
e 16 88
e 16 91
e 16 92
e 17 18
e 17 21
e 17 24
e 17 29
e 17 30
e 17 40
e 17 45
e 17 46
e 17 50
e 17 54
e 17 57
e 17 62
e 17 63
e 17 66
e 17 67
e 17 72
e 17 77
e 17 82
e 17 83
e 17 86
e 17 87
e 17 88
e 17 91
e 17 92
e 18 24
e 18 25
e 18 30
e 18 34
e 18 35
e 18 36
e 18 40
e 18 42
e 18 43
e 18 44
e 18 63
e 18 70
e 18 71
e 18 72
e 18 73
e 18 75
e 18 84
e 18 88
e 18 91
e 18 92
e 19 20
e 19 21
e 19 22
e 19 23
e 19 27
e 19 31
e 19 33
e 19 35
e 19 47
e 19 53
e 19 54
e 19 57
e 19 64
e 19 65
e 19 69
e 19 74
e 19 78
e 19 80
e 19 82
e 19 84
e 19 85
e 19 86
e 19 91
e 19 92
e 19 98
e 20 25
e 20 27
e 20 34
e 20 35
e 20 38
e 20 44
e 20 45
e 20 47
e 20 49
e 20 50
e 20 51
e 20 52
e 20 58
e 20 59
e 20 60
e 20 64
e 20 74
e 20 77
e 20 78
e 20 83
e 20 84
e 20 90
e 20 91
e 21 25
e 21 26
e 21 29
e 21 31
e 21 32
e 21 34
e 21 40
e 21 50
e 21 53
e 21 55
e 21 56
e 21 57
e 21 60
e 21 61
e 21 62
e 21 65
e 21 73
e 21 74
e 21 75
e 21 79
e 21 80
e 21 81
e 21 82
e 21 83
e 21 84
e 21 87
e 21 88
e 21 90
e 21 91
e 22 23
e 22 32
e 22 37
e 22 38
e 22 40
e 22 55
e 22 59
e 22 60
e 22 61
e 22 63
e 22 73
e 22 81
e 22 82
e 22 87
e 22 90
e 22 92
e 22 96
e 22 97
e 23 26
e 23 27
e 23 34
e 23 45
e 23 54
e 23 55
e 23 64
e 23 65
e 23 70
e 23 71
e 23 72
e 23 73
e 23 74
e 23 83
e 23 84
e 23 88
e 23 89
e 23 92
e 24 25
e 24 28
e 24 38
e 24 39
e 24 41
e 24 42
e 24 43
e 24 44
e 24 46
e 24 48
e 24 53
e 24 63
e 24 64
e 24 65
e 24 70
e 24 76
e 24 77
e 24 87
e 24 88
e 24 90
e 24 91
e 25 26
e 25 42
e 25 48
e 25 49
e 25 52
e 25 55
e 25 56
e 25 57
e 25 59
e 25 60
e 25 66
e 25 70
e 25 73
e 25 79
e 25 88
e 25 89
e 25 91
e 25 92
e 26 27
e 26 28
e 26 29
e 26 36
e 26 40
e 26 43
e 26 44
e 26 49
e 26 50
e 26 57
e 26 58
e 26 63
e 26 68
e 26 74
e 26 77
e 26 79
e 26 81
e 26 84
e 26 86
e 26 88
e 26 89
e 26 90
e 26 91
e 27 29
e 27 31
e 27 38
e 27 41
e 27 42
e 27 45
e 27 54
e 27 55
e 27 57
e 27 59
e 27 60
e 27 62
e 27 64
e 27 66
e 27 67
e 27 69
e 27 73
e 27 76
e 27 81
e 27 83
e 27 85
e 27 89
e 27 90
e 27 92
e 28 31
e 28 35
e 28 36
e 28 38
e 28 41
e 28 43
e 28 50
e 28 51
e 28 54
e 28 55
e 28 63
e 28 64
e 28 65
e 28 67
e 28 70
e 28 71
e 28 75
e 28 77
e 28 79
e 28 82
e 28 87
e 28 92
e 29 32
e 29 34
e 29 35
e 29 40
e 29 41
e 29 48
e 29 49
e 29 50
e 29 53
e 29 54
e 29 57
e 29 62
e 29 63
e 29 67
e 29 68
e 29 71
e 29 74
e 29 77
e 29 83
e 29 86
e 29 89
e 29 90
e 29 99
e 30 31
e 30 32
e 30 37
e 30 38
e 30 41
e 30 42
e 30 50
e 30 51
e 30 52
e 30 54
e 30 55
e 30 57
e 30 59
e 30 64
e 30 70
e 30 76
e 30 77
e 30 78
e 30 83
e 30 84
e 30 85
e 30 86
e 30 87
e 30 90
e 30 91
e 30 92
e 31 34
e 31 36
e 31 40
e 31 43
e 31 44
e 31 48
e 31 50
e 31 56
e 31 58
e 31 65
e 31 66
e 31 67
e 31 69
e 31 70
e 31 73
e 31 76
e 31 85
e 31 88
e 31 91
e 31 93
e 32 40
e 32 43
e 32 44
e 32 46
e 32 54
e 32 56
e 32 59
e 32 63
e 32 65
e 32 66
e 32 68
e 32 70
e 32 71
e 32 77
e 32 78
e 32 80
e 32 86
e 32 89
e 32 90
e 33 34
e 33 36
e 33 37
e 33 39
e 33 41
e 33 43
e 33 45
e 33 46
e 33 49
e 33 53
e 33 63
e 33 65
e 33 68
e 33 69
e 33 74
e 33 75
e 33 77
e 33 79
e 33 81
e 33 82
e 33 87
e 33 92
e 34 36
e 34 37
e 34 43
e 34 46
e 34 50
e 34 64
e 34 67
e 34 68
e 34 71
e 34 73
e 34 75
e 34 84
e 34 86
e 34 87
e 34 88
e 34 90
e 34 93
e 35 37
e 35 42
e 35 47
e 35 56
e 35 57
e 35 58
e 35 59
e 35 70
e 35 71
e 35 73
e 35 76
e 35 82
e 35 84
e 35 86
e 35 90
e 35 92
e 36 38
e 36 49
e 36 51
e 36 52
e 36 53
e 36 60
e 36 61
e 36 64
e 36 65
e 36 66
e 36 67
e 36 71
e 36 72
e 36 76
e 36 85
e 36 86
e 36 87
e 36 88
e 36 89
e 36 90
e 36 91
e 36 96
e 37 43
e 37 44
e 37 46
e 37 49
e 37 51
e 37 54
e 37 56
e 37 59
e 37 62
e 37 63
e 37 65
e 37 69
e 37 71
e 37 73
e 37 76
e 37 81
e 37 84
e 37 85
e 37 89
e 37 90
e 38 40
e 38 44
e 38 48
e 38 51
e 38 52
e 38 60
e 38 61
e 38 64
e 38 67
e 38 68
e 38 71
e 38 76
e 38 77
e 38 82
e 38 83
e 38 89
e 38 91
e 38 92
e 38 100
e 39 40
e 39 49
e 39 50
e 39 51
e 39 52
e 39 53
e 39 55
e 39 61
e 39 62
e 39 63
e 39 66
e 39 71
e 39 72
e 39 75
e 39 86
e 39 88
e 39 89
e 39 90
e 40 48
e 40 50
e 40 51
e 40 53
e 40 55
e 40 58
e 40 61
e 40 64
e 40 67
e 40 77
e 40 83
e 40 84
e 40 86
e 40 90
e 40 91
e 40 92
e 40 93
e 40 100
e 41 42
e 41 43
e 41 47
e 41 52
e 41 54
e 41 59
e 41 68
e 41 70
e 41 71
e 41 72
e 41 73
e 41 75
e 41 79
e 41 81
e 41 84
e 41 86
e 41 87
e 41 88
e 41 89
e 41 91
e 41 100
e 42 44
e 42 53
e 42 60
e 42 65
e 42 67
e 42 72
e 42 73
e 42 75
e 42 77
e 42 81
e 42 83
e 42 84
e 42 87
e 42 91
e 42 94
e 43 51
e 43 53
e 43 56
e 43 58
e 43 62
e 43 63
e 43 64
e 43 70
e 43 75
e 43 78
e 43 79
e 43 81
e 43 84
e 43 85
e 43 86
e 43 89
e 43 90
e 43 94
e 43 95
e 44 46
e 44 47
e 44 50
e 44 51
e 44 53
e 44 54
e 44 56
e 44 57
e 44 59
e 44 63
e 44 64
e 44 67
e 44 71
e 44 74
e 44 75
e 44 78
e 44 81
e 44 86
e 44 87
e 44 88
e 44 89
e 44 97
e 44 98
e 45 57
e 45 59
e 45 66
e 45 72
e 45 73
e 45 75
e 45 76
e 45 77
e 45 83
e 45 85
e 45 86
e 45 88
e 45 91
e 45 92
e 46 51
e 46 53
e 46 62
e 46 75
e 46 76
e 46 78
e 46 83
e 46 85
e 46 86
e 46 89
e 46 92
e 46 93
e 47 48
e 47 51
e 47 52
e 47 54
e 47 55
e 47 56
e 47 57
e 47 60
e 47 61
e 47 68
e 47 70
e 47 71
e 47 72
e 47 78
e 47 79
e 47 81
e 47 86
e 47 87
e 47 89
e 48 50
e 48 56
e 48 62
e 48 65
e 48 73
e 48 78
e 48 82
e 48 87
e 48 88
e 48 89
e 48 92
e 49 52
e 49 53
e 49 55
e 49 58
e 49 60
e 49 61
e 49 64
e 49 66
e 49 68
e 49 69
e 49 73
e 49 74
e 49 79
e 49 80
e 49 83
e 49 85
e 49 88
e 49 90
e 49 91
e 49 92
e 49 100
e 50 52
e 50 54
e 50 58
e 50 62
e 50 64
e 50 65
e 50 66
e 50 67
e 50 69
e 50 70
e 50 73
e 50 74
e 50 75
e 50 78
e 50 82
e 50 83
e 50 85
e 50 89
e 50 91
e 50 92
e 50 97
e 50 98
e 50 100
e 51 52
e 51 53
e 51 55
e 51 63
e 51 64
e 51 76
e 51 78
e 51 79
e 51 82
e 51 83
e 51 84
e 51 85
e 51 86
e 51 88
e 51 89
e 51 96
e 51 98
e 52 53
e 52 59
e 52 64
e 52 65
e 52 71
e 52 72
e 52 73
e 52 81
e 52 83
e 52 87
e 52 88
e 52 90
e 52 91
e 53 55
e 53 63
e 53 69
e 53 75
e 53 77
e 53 78
e 53 79
e 53 80
e 53 85
e 53 88
e 53 89
e 53 92
e 53 93
e 54 63
e 54 68
e 54 71
e 54 72
e 54 74
e 54 76
e 54 77
e 54 78
e 54 79
e 54 84
e 54 85
e 54 89
e 54 91
e 54 100
e 55 57
e 55 64
e 55 66
e 55 68
e 55 77
e 55 80
e 55 81
e 55 83
e 55 85
e 55 86
e 55 91
e 55 99
e 56 59
e 56 61
e 56 64
e 56 66
e 56 67
e 56 71
e 56 75
e 56 78
e 56 86
e 56 92
e 56 97
e 57 58
e 57 61
e 57 64
e 57 70
e 57 80
e 57 81
e 57 82
e 57 84
e 57 87
e 57 91
e 57 95
e 58 68
e 58 71
e 58 74
e 58 78
e 58 79
e 58 81
e 58 90
e 58 91
e 58 92
e 59 61
e 59 64
e 59 65
e 59 68
e 59 69
e 59 70
e 59 78
e 59 79
e 59 81
e 59 82
e 59 83
e 59 87
e 59 90
e 59 92
e 59 94
e 59 97
e 60 62
e 60 70
e 60 71
e 60 72
e 60 76
e 60 78
e 60 79
e 60 80
e 60 81
e 60 82
e 60 84
e 60 87
e 60 88
e 60 91
e 60 94
e 60 96
e 60 97
e 61 64
e 61 69
e 61 72
e 61 79
e 61 82
e 61 85
e 61 86
e 61 87
e 61 88
e 61 89
e 61 90
e 61 91
e 61 92
e 61 95
e 61 99
e 62 72
e 62 74
e 62 75
e 62 76
e 62 81
e 62 83
e 62 85
e 62 87
e 62 89
e 63 66
e 63 69
e 63 76
e 63 77
e 63 81
e 63 85
e 63 87
e 63 88
e 63 89
e 63 90
e 63 100
e 64 66
e 64 67
e 64 71
e 64 73
e 64 74
e 64 83
e 64 89
e 64 90
e 64 93
e 64 98
e 65 70
e 65 73
e 65 76
e 65 77
e 65 78
e 65 88
e 65 90
e 65 91
e 66 67
e 66 68
e 66 69
e 66 72
e 66 74
e 66 86
e 66 88
e 66 98
e 67 71
e 67 72
e 67 78
e 67 81
e 67 83
e 67 89
e 67 91
e 68 70
e 68 71
e 68 73
e 68 74
e 68 76
e 68 80
e 68 81
e 68 82
e 68 85
e 68 89
e 68 90
e 69 71
e 69 78
e 69 81
e 69 89
e 69 94
e 69 99
e 70 71
e 70 72
e 70 74
e 70 76
e 70 79
e 70 82
e 70 89
e 70 91
e 70 92
e 71 77
e 71 80
e 71 81
e 71 85
e 71 89
e 71 91
e 72 74
e 72 75
e 72 77
e 72 78
e 72 81
e 72 85
e 72 86
e 72 92
e 72 98
e 73 77
e 73 79
e 73 83
e 73 86
e 73 87
e 73 89
e 73 90
e 73 91
e 73 93
e 74 80
e 74 84
e 74 85
e 74 88
e 74 91
e 74 96
e 74 97
e 75 76
e 75 78
e 75 81
e 75 82
e 75 83
e 75 84
e 75 86
e 75 87
e 75 88
e 75 91
e 75 92
e 76 78
e 76 81
e 76 82
e 76 84
e 76 89
e 76 94
e 76 98
e 77 79
e 77 84
e 77 87
e 77 96
e 78 81
e 78 82
e 78 85
e 78 90
e 78 91
e 78 93
e 78 94
e 78 98
e 78 100
e 79 81
e 79 82
e 79 83
e 79 87
e 79 89
e 79 90
e 79 91
e 79 92
e 80 83
e 80 84
e 80 86
e 80 89
e 80 92
e 81 82
e 81 84
e 81 90
e 81 91
e 82 87
e 82 88
e 82 90
e 82 91
e 83 86
e 83 89
e 83 92
e 83 94
e 83 95
e 83 100
e 84 85
e 85 90
e 85 97
e 85 98
e 86 88
e 86 89
e 86 91
e 86 92
e 86 95
e 86 96
e 87 93
e 87 94
e 88 89
e 88 92
e 88 95
e 88 96
e 89 94
e 89 95
e 89 96
e 89 100
e 90 92
e 90 93
e 90 96
e 90 97
e 90 98
e 90 99
e 90 100
e 91 93
e 91 94
e 91 100
e 92 95
e 92 96
e 92 99
e 92 100
e 93 94
e 93 95
e 93 96
e 93 100
e 94 95
e 94 96
e 94 97
e 94 98
e 96 97
e 96 98
e 96 100
e 97 98
e 98 100
